data/processed_heuristic-threshold/instances/1/8/ds_710_courier_2925/pairwise.tsp
NAME: ds_710_courier_2925
TYPE: TSP
COMMENT: nil
DIMENSION: 9
EDGE_WEIGHT_TYPE: EXPLICIT
EDGE_WEIGHT_FORMAT: FULL_MATRIX
EDGE_WEIGHT_SECTION
9999 3298 3131 2188 2213 3064 2841 2714 3158 
3298 9999 167 1207 1133 549 660 654 682 
3131 167 9999 1050 971 489 548 507 651 
2188 1207 1050 9999 125 878 655 559 974 
2213 1133 971 125 9999 856 633 503 972 
3064 549 489 878 856 9999 223 388 184 
2841 660 548 655 633 223 9999 203 353 
2714 654 507 559 503 388 203 9999 547 
3158 682 651 974 972 184 353 547 9999 
