data/processed_heuristic-threshold/instances/1/8/ds_710_courier_2925/pairwise.sol
9
0 3 6 8 5 1 2 7 4 
